(set-logic ALL)
(declare-fun var0 () String)
(assert (str.in_re var0 (re.++ (re.+ (re.* (str.to_re "000"))) (re.++ (re.* (re.+ (str.to_re "11"))) (re.++ (re.union (re.* (str.to_re "22")) (re.* (str.to_re "333"))) (re.++ (re.+ (re.+ (str.to_re "444"))) (re.++ (re.+ (re.* (str.to_re "555"))) (re.++ (re.union (re.union (str.to_re "66") (str.to_re "77")) (re.union (str.to_re "88") (str.to_re "9"))) (re.++ (re.* (re.union (str.to_re "a") (str.to_re "bbb"))) (re.++ (re.+ (re.+ (str.to_re "ccc"))) (re.++ (re.+ (re.* (str.to_re "ddd"))) (re.++ (re.* (re.union (str.to_re "ee") (str.to_re "fff"))) (re.++ (re.union (re.* (str.to_re "ggg")) (re.* (str.to_re "hhh"))) (re.++ (re.+ (re.union (str.to_re "iii") (str.to_re "jj"))) (re.++ (re.+ (re.* (str.to_re "kk"))) (re.++ (re.+ (re.+ (str.to_re "ll"))) (re.++ (re.union (re.+ (str.to_re "mmm")) (re.+ (str.to_re "nnn"))) (re.++ (re.+ (re.+ (str.to_re "ooo"))) (re.++ (re.* (re.union (str.to_re "ppp") (str.to_re "qqq"))) (re.++ (re.+ (re.* (str.to_re "rr"))) (re.++ (re.* (re.* (str.to_re "s"))) (re.++ (re.* (re.* (str.to_re "ttt"))) (re.++ (re.+ (re.* (str.to_re "u"))) (re.++ (re.* (re.* (str.to_re "v"))) (re.++ (re.* (re.union (str.to_re "w") (str.to_re "xx"))) (re.++ (re.+ (re.+ (str.to_re "y"))) (re.++ (re.* (re.+ (str.to_re "zz"))) (re.++ (re.+ (re.+ (str.to_re "A"))) (re.++ (re.union (re.union (str.to_re "BB") (str.to_re "CCC")) (re.union (str.to_re "D") (str.to_re "EEE"))) (re.++ (re.union (re.+ (str.to_re "F")) (re.+ (str.to_re "G"))) (re.++ (re.+ (re.* (str.to_re "H"))) (re.++ (re.+ (re.+ (str.to_re "I"))) (re.++ (re.union (re.* (str.to_re "JJJ")) (re.* (str.to_re "K"))) (re.++ (re.union (re.union (str.to_re "L") (str.to_re "MMM")) (re.union (str.to_re "NNN") (str.to_re "O"))) (re.++ (re.union (re.+ (str.to_re "P")) (re.+ (str.to_re "QQQ"))) (re.++ (re.+ (re.union (str.to_re "RR") (str.to_re "SSS"))) (re.++ (re.union (re.* (str.to_re "T")) (re.* (str.to_re "U"))) (re.++ (re.* (re.* (str.to_re "V"))) (re.++ (re.union (re.+ (str.to_re "WW")) (re.+ (str.to_re "XXX"))) (re.++ (re.union (re.* (str.to_re "YYY")) (re.* (str.to_re "ZZZ"))) (re.++ (re.* (re.* (str.to_re "!"))) (re.++ (re.union (re.union (str.to_re """") (str.to_re "##")) (re.union (str.to_re "$$") (str.to_re "%%%"))) (re.++ (re.+ (re.union (str.to_re "&") (str.to_re "''"))) (re.++ (re.* (re.union (str.to_re "(((") (str.to_re "))"))) (re.++ (re.+ (re.+ (str.to_re "***"))) (re.++ (re.+ (re.+ (str.to_re "+++"))) (re.++ (re.+ (re.+ (str.to_re ","))) (re.++ (re.union (re.union (str.to_re "--") (str.to_re "..")) (re.union (str.to_re "/") (str.to_re ":::"))) (re.++ (re.+ (re.* (str.to_re ";;"))) (re.++ (re.+ (re.+ (str.to_re "<"))) (re.++ (re.+ (re.* (str.to_re "=="))) (re.++ (re.union (re.+ (str.to_re ">>>")) (re.+ (str.to_re "??"))) (re.++ (re.+ (re.+ (str.to_re "@@"))) (re.++ (re.union (re.* (str.to_re "[[[")) (re.* (str.to_re "\\"))) (re.++ (re.* (re.+ (str.to_re "]]"))) (re.++ (re.union (re.union (str.to_re "^^") (str.to_re "__")) (re.union (str.to_re "``") (str.to_re "{{"))) (re.++ (re.* (re.+ (str.to_re "|"))) (re.++ (re.+ (re.* (str.to_re "}}}"))) (re.++ (re.* (re.* (str.to_re "~~"))) (re.++ (re.+ (re.union (str.to_re "0") (str.to_re "11"))) (re.++ (re.+ (re.* (str.to_re "2"))) (re.++ (re.+ (re.* (str.to_re "333"))) (re.++ (re.+ (re.+ (str.to_re "444"))) (re.++ (re.* (re.+ (str.to_re "555"))) (re.++ (re.union (re.union (str.to_re "66") (str.to_re "777")) (re.union (str.to_re "8") (str.to_re "999"))) (re.++ (re.union (re.* (str.to_re "aaa")) (re.* (str.to_re "bb"))) (re.++ (re.union (re.+ (str.to_re "cc")) (re.+ (str.to_re "dd"))) (re.++ (re.union (re.+ (str.to_re "e")) (re.+ (str.to_re "f"))) (re.++ (re.+ (re.* (str.to_re "ggg"))) (re.++ (re.* (re.+ (str.to_re "hh"))) (re.++ (re.* (re.* (str.to_re "iii"))) (re.++ (re.* (re.union (str.to_re "j") (str.to_re "kk"))) (re.++ (re.+ (re.* (str.to_re "lll"))) (re.++ (re.+ (re.union (str.to_re "mm") (str.to_re "nn"))) (re.++ (re.union (re.union (str.to_re "ooo") (str.to_re "ppp")) (re.union (str.to_re "q") (str.to_re "rr"))) (re.++ (re.* (re.union (str.to_re "ss") (str.to_re "ttt"))) (re.++ (re.union (re.* (str.to_re "uuu")) (re.* (str.to_re "v"))) (re.++ (re.* (re.union (str.to_re "www") (str.to_re "xxx"))) (re.++ (re.+ (re.+ (str.to_re "yy"))) (re.++ (re.+ (re.+ (str.to_re "zz"))) (re.++ (re.union (re.union (str.to_re "A") (str.to_re "BB")) (re.union (str.to_re "CCC") (str.to_re "DD"))) (re.++ (re.* (re.union (str.to_re "E") (str.to_re "FF"))) (re.++ (re.union (re.+ (str.to_re "GGG")) (re.+ (str.to_re "HHH"))) (re.++ (re.union (re.* (str.to_re "III")) (re.* (str.to_re "J"))) (re.++ (re.union (re.union (str.to_re "KKK") (str.to_re "LL")) (re.union (str.to_re "MMM") (str.to_re "NNN"))) (re.++ (re.* (re.+ (str.to_re "O"))) (re.++ (re.* (re.+ (str.to_re "PPP"))) (re.++ (re.union (re.union (str.to_re "QQ") (str.to_re "RR")) (re.union (str.to_re "SS") (str.to_re "TTT"))) (re.++ (re.* (re.* (str.to_re "U"))) (re.++ (re.union (re.union (str.to_re "V") (str.to_re "WW")) (re.union (str.to_re "XX") (str.to_re "Y"))) (re.++ (re.* (re.* (str.to_re "Z"))) (re.++ (re.+ (re.+ (str.to_re "!!!"))) (re.++ (re.union (re.* (str.to_re """")) (re.* (str.to_re "##"))) (re.++ (re.* (re.* (str.to_re "$"))) (re.++ (re.union (re.+ (str.to_re "%%%")) (re.+ (str.to_re "&&&"))) (re.++ (re.* (re.* (str.to_re "''"))) (re.++ (re.+ (re.* (str.to_re "(("))) (re.++ (re.union (re.* (str.to_re "))")) (re.* (str.to_re "**"))) (re.++ (re.* (re.union (str.to_re "+") (str.to_re ",,"))) (re.++ (re.+ (re.union (str.to_re "---") (str.to_re ".."))) (re.++ (re.* (re.* (str.to_re "///"))) (re.++ (re.+ (re.* (str.to_re ":::"))) (re.++ (re.* (re.* (str.to_re ";;;"))) (re.++ (re.* (re.* (str.to_re "<<"))) (re.++ (re.union (re.* (str.to_re "===")) (re.* (str.to_re ">>>"))) (re.++ (re.union (re.* (str.to_re "???")) (re.* (str.to_re "@"))) (re.++ (re.* (re.* (str.to_re "[[["))) (re.++ (re.* (re.+ (str.to_re "\\\\"))) (re.++ (re.union (re.+ (str.to_re "]]]")) (re.+ (str.to_re "^^^"))) (re.++ (re.union (re.+ (str.to_re "__")) (re.+ (str.to_re "``"))) (re.++ (re.+ (re.+ (str.to_re "{{{"))) (re.++ (re.union (re.union (str.to_re "|||") (str.to_re "}")) (re.union (str.to_re "~~~") (str.to_re "00"))) (re.++ (re.+ (re.+ (str.to_re "1"))) (re.++ (re.union (re.union (str.to_re "2") (str.to_re "33")) (re.union (str.to_re "44") (str.to_re "555"))) (re.++ (re.union (re.+ (str.to_re "66")) (re.+ (str.to_re "7"))) (re.++ (re.+ (re.* (str.to_re "88"))) (re.++ (re.union (re.* (str.to_re "99")) (re.* (str.to_re "a"))) (re.++ (re.+ (re.union (str.to_re "b") (str.to_re "c"))) (re.++ (re.* (re.+ (str.to_re "ddd"))) (re.++ (re.union (re.* (str.to_re "eee")) (re.* (str.to_re "f"))) (re.++ (re.+ (re.* (str.to_re "g"))) (re.++ (re.+ (re.union (str.to_re "h") (str.to_re "i"))) (re.++ (re.+ (re.+ (str.to_re "jjj"))) (re.++ (re.* (re.* (str.to_re "k"))) (re.++ (re.union (re.+ (str.to_re "lll")) (re.+ (str.to_re "mmm"))) (re.++ (re.* (re.* (str.to_re "nnn"))) (re.++ (re.* (re.* (str.to_re "ooo"))) (re.++ (re.union (re.union (str.to_re "ppp") (str.to_re "q")) (re.union (str.to_re "r") (str.to_re "s"))) (re.++ (re.+ (re.* (str.to_re "t"))) (re.++ (re.union (re.* (str.to_re "uuu")) (re.* (str.to_re "vv"))) (re.++ (re.* (re.+ (str.to_re "ww"))) (re.++ (re.* (re.+ (str.to_re "xxx"))) (re.++ (re.* (re.* (str.to_re "y"))) (re.++ (re.+ (re.union (str.to_re "z") (str.to_re "AA"))) (re.++ (re.union (re.union (str.to_re "BBB") (str.to_re "CC")) (re.union (str.to_re "DD") (str.to_re "E"))) (re.++ (re.+ (re.+ (str.to_re "F"))) (re.++ (re.union (re.union (str.to_re "GGG") (str.to_re "HH")) (re.union (str.to_re "III") (str.to_re "JJJ"))) (re.++ (re.* (re.+ (str.to_re "K"))) (re.++ (re.+ (re.union (str.to_re "LLL") (str.to_re "M"))) (re.++ (re.union (re.* (str.to_re "NNN")) (re.* (str.to_re "O"))) (re.++ (re.+ (re.union (str.to_re "PP") (str.to_re "QQ"))) (re.++ (re.* (re.* (str.to_re "RRR"))) (re.++ (re.* (re.* (str.to_re "SS"))) (re.++ (re.* (re.+ (str.to_re "TT"))) (re.++ (re.+ (re.* (str.to_re "UUU"))) (re.++ (re.+ (re.* (str.to_re "VVV"))) (re.++ (re.* (re.+ (str.to_re "WW"))) (re.++ (re.union (re.union (str.to_re "XXX") (str.to_re "YY")) (re.union (str.to_re "ZZZ") (str.to_re "!!!"))) (re.++ (re.* (re.union (str.to_re """""") (str.to_re "#"))) (re.++ (re.union (re.union (str.to_re "$$$") (str.to_re "%%")) (re.union (str.to_re "&&&") (str.to_re "'"))) (re.++ (re.union (re.union (str.to_re "(") (str.to_re ")")) (re.union (str.to_re "***") (str.to_re "+"))) (re.++ (re.* (re.* (str.to_re ",,"))) (re.++ (re.* (re.union (str.to_re "--") (str.to_re "..."))) (re.++ (re.* (re.+ (str.to_re "//"))) (re.++ (re.union (re.+ (str.to_re ":")) (re.+ (str.to_re ";"))) (re.++ (re.+ (re.+ (str.to_re "<<"))) (re.++ (re.* (re.* (str.to_re "==="))) (re.++ (re.+ (re.* (str.to_re ">"))) (re.++ (re.+ (re.union (str.to_re "?") (str.to_re "@@@"))) (re.++ (re.+ (re.union (str.to_re "[[") (str.to_re "\\"))) (re.++ (re.+ (re.union (str.to_re "]") (str.to_re "^"))) (re.++ (re.+ (re.+ (str.to_re "_"))) (re.++ (re.* (re.union (str.to_re "``") (str.to_re "{{"))) (re.* (re.* (str.to_re "|"))))))))))))))))))))))))))))))))))))))))))))))))))))))))))))))))))))))))))))))))))))))))))))))))))))))))))))))))))))))))))))))))))))))))))))))))))))))))))))))))))))))
(check-sat)